Route #1: 23 31 38 2 24 39 9 8 
Route #2: 13 27 35 36 40 33 14 
Route #3: 22 15 28 42 44 12 4 29 
Route #4: 25 34 45 7 5 
Route #5: 10 6 20 37 30 32 3 
Route #6: 11 16 43 26 18 21 
Route #7: 19 17 41 
cost 1204.82
